200
1000
495
492
487
483
483
481
481
479
476
471
470
465
458
457
454
453
452
452
452
450
450
448
444
440
439
439
437
437
435
434
432
430
429
429
428
428
427
425
424
424
422
419
419
417
414
412
411
408
406
406
405
403
403
397
396
395
392
390
390
389
389
386
384
383
382
382
380
380
379
378
378
377
374
371
364
361
361
358
355
351
350
350
350
349
348
348
346
343
340
339
333
333
331
331
329
328
327
323
322
320
319
317
314
313
313
311
311
311
309
309
306
297
295
295
293
292
292
287
283
282
282
281
280
280
280
277
276
275
273
272
272
272
269
266
265
264
261
260
259
259
258
256
256
255
254
251
247
247
245
240
239
239
239
238
236
235
232
230
228
227
227
227
223
222
222
220
220
220
215
214
210
208
206
205
201
201
200
199
198
193
192
192
191
189
189
187
185
184
182
181
181
179
179
173
173
173
171
169
167
167
